n = 100;
C = 565;
w = [80,325,69,268,338,531,165,93,177,734,596,283,885,732,857,840,926,280,399,254,505,983,893,423,840,284,511,558,911,853,843,595,391,851,141,459,358,358,964,661,877,591,306,366,441,452,904,806,747,784,855,537,488,961,888,424,697,944,869,637,356,68,726,210,769,447,453,994,62,23,762,567,444,94,904,610,39,626,350,854,970,206,502,342,145,936,570,794,765,953,306,606,844,752,935,562,902,519,388,403];
p = [628,14,590,20,154,128,553,391,313,759,724,404,39,599,657,780,139,955,823,690,907,449,208,54,550,209,83,2,996,2,98,672,809,685,941,945,286,688,85,279,471,428,482,173,910,983,198,114,943,234,224,242,866,660,681,484,812,670,754,485,566,197,316,555,172,84,55,331,943,863,60,452,28,945,371,410,539,286,525,580,81,466,995,334,374,312,461,31,904,939,212,948,966,337,1,67,349,291,11,201];
